c sursa https://logictools.org/prop.html
p cnf 15 60
-6 11 -4
4 7
15 -12 4
1 -7 4
10 8 -1
6 4 -2
-5 12 -12
-11 3 5
-4 -5 13
12 8 -9
-7 -3 -2
5 10 -1
-7 1 7
-4 -6 12
-12 14 -9
-2 -11 -8
-2 9 10
2 8 6
7 3 -11
14 -5 12
5 -14 -2
-10 -15 8
-4 -9 -1
11 -6 4
-6 13 12
10 3 -6
-12 10 3
4 12 -5
-2 10 8
-1 -4 11
3 -7 -11
4 -10 -8
-4 -13 8
3 7 -10
-13 11 3
14 -12 1
-6 9 -3
7 11 -13
14 11 -4
-10 -3 2
6 10 5
-15 11 -1
14 5 12
-2 -6 -13
3 -15 8
1 -9 -4
1 9 8
1 -11 -12
11 -10 -6
-5 -11 -7
3 11 2
13 5 -1
9 -6 6
-8 10 13
-11 -3
5 11 -11
-9 -7 12
-14 -13 -8
14 -6 11
11 7 10
